/* Objective function */
min: +C37 +C38 +C39 +C40 +C41 +C42;

/* Constraints */
+4 C1 +80 C2 +171 C3 +22 C4 +42 C5 +C6 -195 C37 <= 0;
+4 C7 +80 C8 +171 C9 +22 C10 +42 C11 +C12 -195 C38 <= 0;
+4 C13 +80 C14 +171 C15 +22 C16 +42 C17 +C18 -195 C39 <= 0;
+4 C19 +80 C20 +171 C21 +22 C22 +42 C23 +C24 -195 C40 <= 0;
+4 C25 +80 C26 +171 C27 +22 C28 +42 C29 +C30 -195 C41 <= 0;
+4 C31 +80 C32 +171 C33 +22 C34 +42 C35 +C36 -195 C42 <= 0;
+59 C1 +68 C2 +12 C3 +66 C4 +48 C5 +75 C6 -81 C37 <= 0;
+59 C7 +68 C8 +12 C9 +66 C10 +48 C11 +75 C12 -81 C38 <= 0;
+59 C13 +68 C14 +12 C15 +66 C16 +48 C17 +75 C18 -81 C39 <= 0;
+59 C19 +68 C20 +12 C21 +66 C22 +48 C23 +75 C24 -81 C40 <= 0;
+59 C25 +68 C26 +12 C27 +66 C28 +48 C29 +75 C30 -81 C41 <= 0;
+59 C31 +68 C32 +12 C33 +66 C34 +48 C35 +75 C36 -81 C42 <= 0;
+C1 +C7 +C13 +C19 +C25 +C31 = 1;
+C2 +C8 +C14 +C20 +C26 +C32 = 1;
+C3 +C9 +C15 +C21 +C27 +C33 = 1;
+C4 +C10 +C16 +C22 +C28 +C34 = 1;
+C5 +C11 +C17 +C23 +C29 +C35 = 1;
+C6 +C12 +C18 +C24 +C30 +C36 = 1;

/* Variable bounds */
C1 <= 1;
C2 <= 1;
C3 <= 1;
C4 <= 1;
C5 <= 1;
C6 <= 1;
C7 <= 1;
C8 <= 1;
C9 <= 1;
C10 <= 1;
C11 <= 1;
C12 <= 1;
C13 <= 1;
C14 <= 1;
C15 <= 1;
C16 <= 1;
C17 <= 1;
C18 <= 1;
C19 <= 1;
C20 <= 1;
C21 <= 1;
C22 <= 1;
C23 <= 1;
C24 <= 1;
C25 <= 1;
C26 <= 1;
C27 <= 1;
C28 <= 1;
C29 <= 1;
C30 <= 1;
C31 <= 1;
C32 <= 1;
C33 <= 1;
C34 <= 1;
C35 <= 1;
C36 <= 1;
C37 <= 1;
C38 <= 1;
C39 <= 1;
C40 <= 1;
C41 <= 1;
C42 <= 1;

/* Integer definitions */
int C1,C2,C3,C4,C5,C6,C7,C8,C9,C10,C11,C12,C13,C14,C15,C16,C17,C18,C19,C20,C21,C22,C23,C24,C25,C26,C27,C28,C29,C30,C31,C32,C33,C34,C35,C36,C37,C38,C39,C40,C41,C42;
